42
7
0 8 11 13 15 16 18 20 21 23 27 30 31 32 35 37 38 41
1 7 8 10 11 13 21 22 23 25 26 29 30 31 32 35 36 37 38
2 7 10 11 13 16 17 18 19 20 21 23 25 26 28 29 30 31 35 38 39 41
3 8 11 13 16 17 18 19 20 21 22 30 31 34 36 40 41
4 10 11 12 18 22 23 28 30 34 35 36 37 38 40
5 14 15 16 18 19 20 31 32 40
6 9 24 26 33
